50 13
4 26 47 1 15
3 4 17 10
7 18 45 5 47 38 11 25
3 46 23 43
3 47 1 3
5 35 37 46 21 15
2 45 33
8 4 18 28 6 38 10 23 1
4 44 45 9 33
7 38 13 22 33 2 24 16
7 26 39 49 21 24 33 43
6 26 35 6 46 12 22
4 28 11 13 2
